20
1 0 39
2 0 10
2 1 58
3 0 78
3 1 25
3 2 12
4 0 64
4 1 17
4 2 34
4 3 77
5 0 110
5 1 8
5 2 94
5 3 111
5 4 64
6 0 79
6 1 23
6 2 39
6 3 67
6 4 34
6 5 47
7 0 99
7 1 87
7 2 24
7 3 31
7 4 31
7 5 68
7 6 14
8 0 7
8 1 86
8 2 72
8 3 63
8 4 34
8 5 60
8 6 103
8 7 93
9 0 108
9 1 51
9 2 19
9 3 41
9 4 31
9 5 56
9 6 17
9 7 103
9 8 107
10 0 115
10 1 105
10 2 103
10 3 9
10 4 94
10 5 68
10 6 23
10 7 119
10 8 53
10 9 82
11 0 77
11 1 77
11 2 101
11 3 65
11 4 27
11 5 2
11 6 11
11 7 29
11 8 13
11 9 11
11 10 100
12 0 26
12 1 35
12 2 89
12 3 92
12 4 24
12 5 31
12 6 59
12 7 57
12 8 6
12 9 51
12 10 100
12 11 74
13 0 96
13 1 10
13 2 65
13 3 21
13 4 7
13 5 5
13 6 3
13 7 39
13 8 42
13 9 31
13 10 105
13 11 119
13 12 28
14 0 18
14 1 5
14 2 46
14 3 22
14 4 51
14 5 32
14 6 104
14 7 69
14 8 55
14 9 97
14 10 3
14 11 46
14 12 93
14 13 56
15 0 98
15 1 29
15 2 119
15 3 57
15 4 20
15 5 7
15 6 39
15 7 114
15 8 41
15 9 50
15 10 74
15 11 74
15 12 117
15 13 41
15 14 40
16 0 36
16 1 84
16 2 27
16 3 9
16 4 34
16 5 62
16 6 111
16 7 63
16 8 61
16 9 68
16 10 49
16 11 112
16 12 34
16 13 112
16 14 50
16 15 54
17 0 104
17 1 54
17 2 5
17 3 2
17 4 29
17 5 97
17 6 14
17 7 68
17 8 98
17 9 55
17 10 114
17 11 91
17 12 113
17 13 118
17 14 80
17 15 63
17 16 48
18 0 116
18 1 31
18 2 9
18 3 49
18 4 70
18 5 14
18 6 25
18 7 75
18 8 58
18 9 69
18 10 14
18 11 35
18 12 62
18 13 104
18 14 108
18 15 55
18 16 59
18 17 42
19 0 68
19 1 119
19 2 14
19 3 5
19 4 28
19 5 89
19 6 65
19 7 98
19 8 95
19 9 9
19 10 47
19 11 83
19 12 32
19 13 85
19 14 19
19 15 18
19 16 66
19 17 55
19 18 30
